RT is False
Default write of storage_offers_DA.csv just to have a file (but constraint should be inactive)
Reading model...
...model read.
creating competitive generators file...
...competitive generators recorded.
Loading data...
.. day-ahead data with real-time VRE data read.
Compiling instance...
...instance created.
Creating Offer Mitigation (model will solve as dispatch if TRUE)...
...storage offer mitigation file created
Converting model to MPEC...
...converted
NOTE: initial MIP solve with only storage competitive to get feasible solution
Solving...

Welcome to IBM(R) ILOG(R) CPLEX(R) Interactive Optimizer 12.9.0.0
  with Simplex, Mixed Integer & Barrier Optimizers
5725-A06 5725-A29 5724-Y48 5724-Y49 5724-Y54 5724-Y55 5655-Y21
Copyright IBM Corp. 1988, 2019.  All Rights Reserved.

Type 'help' for a list of available commands.
Type 'help' followed by a command name for more
information on commands.

CPLEX> Logfile 'cplex.log' closed.
Logfile 'C:\Users\llavin\Desktop\test826\logs\tmphgnguv0y.cplex.log' open.
CPLEX> New value for parallel optimization mode: -1
CPLEX> New value for mixed integer optimality gap tolerance: 0.01
CPLEX> New value for integrality tolerance: 1e-09
CPLEX> New value for feasibility tolerance: 0.001
CPLEX> New value for deterministic time limit in ticks: 75000
CPLEX> Problem 'C:\Users\llavin\Desktop\test826\logs\tmpfz4padr5.pyomo.lp' read.
Read time = 0.25 sec. (14.73 ticks)
CPLEX> Problem name         : C:\Users\llavin\Desktop\test826\logs\tmpfz4padr5.pyomo.lp
Objective sense      : Maximize
Variables            :   53805  [Nneg: 1,  Box: 22000,  Free: 4464,
                                 Binary: 27340]
Objective nonzeros   :    9029
Linear constraints   :  123205  [Less: 41346,  Greater: 59096,  Equal: 22763]
  Nonzeros           :  291753
  RHS nonzeros       :   67491

Variables            : Min LB: -5000.000        Max UB: 1000000.       
Objective nonzeros   : Min   : 0.1083333        Max   : 2500.000       
Linear constraints   :
  Nonzeros           : Min   : 0.1083333        Max   : 1000000.       
  RHS nonzeros       : Min   : 0.1083333        Max   : 1000000.       
CPLEX> CPXPARAM_Parallel                                -1
CPXPARAM_Simplex_Tolerances_Feasibility          0.001
CPXPARAM_DetTimeLimit                            75000
CPXPARAM_MIP_Tolerances_MIPGap                   0.01
CPXPARAM_MIP_Tolerances_Integrality              1.0000000000000001e-09
Tried aggregator 3 times.
MIP Presolve eliminated 88623 rows and 18947 columns.
MIP Presolve added 3379 rows and 0 columns.
MIP Presolve modified 24876 coefficients.
Aggregator did 12986 substitutions.
Reduced MIP has 24975 rows, 21316 columns, and 71236 nonzeros.
Reduced MIP has 8426 binaries, 0 generals, 0 SOSs, and 0 indicators.
Presolve time = 0.30 sec. (172.40 ticks)
Probing fixed 380 vars, tightened 2823 bounds.
Probing time = 1.17 sec. (865.40 ticks)
Tried aggregator 2 times.
MIP Presolve eliminated 863 rows and 765 columns.
MIP Presolve modified 2213 coefficients.
Aggregator did 39 substitutions.
Reduced MIP has 24073 rows, 20512 columns, and 68623 nonzeros.
Reduced MIP has 8044 binaries, 0 generals, 0 SOSs, and 0 indicators.
Presolve time = 0.11 sec. (69.01 ticks)
Probing time = 0.03 sec. (15.46 ticks)
Clique table members: 6397.
MIP emphasis: balance optimality and feasibility.
MIP search method: dynamic search.
Parallel mode: opportunistic, using up to 32 threads.
Root relaxation solution time = 0.42 sec. (529.56 ticks)

        Nodes                                         Cuts/
   Node  Left     Objective  IInf  Best Integer    Best Bound    ItCnt     Gap

      0     0     3299.6272   672                   3299.6272     6019         
*     0+    0                         3299.6272     3299.6272             0.00%
      0     0        cutoff           3299.6272     3299.6272     6019    0.00%
Elapsed time = 2.92 sec. (2140.54 ticks, tree = 0.01 MB, solutions = 1)

Root node processing (before b&c):
  Real time             =    2.94 sec. (2142.49 ticks)
Parallel b&c, 32 threads:
  Real time             =    0.00 sec. (0.00 ticks)
  Sync time (average)   =    0.00 sec.
  Wait time (average)   =    0.00 sec.
                          ------------
Total (root+branch&cut) =    2.94 sec. (2142.49 ticks)

Solution pool: 1 solution saved.

MIP - Integer optimal solution:  Objective =  3.2996271817e+03
Solution time =    2.95 sec.  Iterations = 6019  Nodes = 0
Deterministic time = 2142.64 ticks  (725.34 ticks/sec)

CPLEX> Incumbent solution written to file 'C:\Users\llavin\Desktop\test826\logs\tmpsuzxtlc_.cplex.sol'.
CPLEX> NOTE: no warmstart specified for MIP iteration, default behavior is true
NOTE: resolving with all competitive generators using storage-only solution to warmstart
Solving...

Welcome to IBM(R) ILOG(R) CPLEX(R) Interactive Optimizer 12.9.0.0
  with Simplex, Mixed Integer & Barrier Optimizers
5725-A06 5725-A29 5724-Y48 5724-Y49 5724-Y54 5724-Y55 5655-Y21
Copyright IBM Corp. 1988, 2019.  All Rights Reserved.

Type 'help' for a list of available commands.
Type 'help' followed by a command name for more
information on commands.

CPLEX> Logfile 'cplex.log' closed.
Logfile 'C:\Users\llavin\Desktop\test826\logs\tmpucyuh055.cplex.log' open.
CPLEX> New value for parallel optimization mode: -1
CPLEX> New value for mixed integer optimality gap tolerance: 0.01
CPLEX> New value for integrality tolerance: 1e-09
CPLEX> New value for feasibility tolerance: 0.001
CPLEX> New value for deterministic time limit in ticks: 75000
CPLEX> Problem 'C:\Users\llavin\Desktop\test826\logs\tmpj2pghl8e.pyomo.lp' read.
Read time = 0.24 sec. (14.75 ticks)
CPLEX> MIP start file 'C:\Users\llavin\Desktop\test826\logs\tmp648pleul.cplex.mst' read.
CPLEX> Problem name         : C:\Users\llavin\Desktop\test826\logs\tmpj2pghl8e.pyomo.lp
Objective sense      : Maximize
Variables            :   54525  [Nneg: 1,  Box: 22720,  Free: 4464,
                                 Binary: 27340]
Objective nonzeros   :    9749
Linear constraints   :  123205  [Less: 41346,  Greater: 59096,  Equal: 22763]
  Nonzeros           :  291753
  RHS nonzeros       :   67491

Variables            : Min LB: -5000.000        Max UB: 1000000.       
Objective nonzeros   : Min   : 0.1083333        Max   : 2500.000       
Linear constraints   :
  Nonzeros           : Min   : 0.1083333        Max   : 1000000.       
  RHS nonzeros       : Min   : 0.1083333        Max   : 1000000.       
CPLEX> CPXPARAM_Parallel                                -1
CPXPARAM_Simplex_Tolerances_Feasibility          0.001
CPXPARAM_DetTimeLimit                            75000
CPXPARAM_MIP_Tolerances_MIPGap                   0.01
CPXPARAM_MIP_Tolerances_Integrality              1.0000000000000001e-09
Warning:  No solution found from 1 MIP starts.
Retaining values of one MIP start for possible repair.
Tried aggregator 3 times.
MIP Presolve eliminated 88623 rows and 19667 columns.
MIP Presolve added 3379 rows and 0 columns.
MIP Presolve modified 24876 coefficients.
Aggregator did 12986 substitutions.
Reduced MIP has 24975 rows, 21316 columns, and 71236 nonzeros.
Reduced MIP has 8426 binaries, 0 generals, 0 SOSs, and 0 indicators.
Presolve time = 0.28 sec. (172.76 ticks)
Probing fixed 380 vars, tightened 2823 bounds.
Probing time = 1.17 sec. (865.40 ticks)
Tried aggregator 2 times.
MIP Presolve eliminated 863 rows and 765 columns.
MIP Presolve modified 2213 coefficients.
Aggregator did 39 substitutions.
Reduced MIP has 24073 rows, 20512 columns, and 68623 nonzeros.
Reduced MIP has 8044 binaries, 0 generals, 0 SOSs, and 0 indicators.
Presolve time = 0.11 sec. (69.01 ticks)
Probing time = 0.03 sec. (15.46 ticks)
Clique table members: 6397.
MIP emphasis: balance optimality and feasibility.
MIP search method: dynamic search.
Parallel mode: opportunistic, using up to 32 threads.
Root relaxation solution time = 0.44 sec. (529.56 ticks)

        Nodes                                         Cuts/
   Node  Left     Objective  IInf  Best Integer    Best Bound    ItCnt     Gap

      0     0     3299.6272   672                   3299.6272     6019         
*     0+    0                         3299.6272     3299.6272             0.00%
      0     0        cutoff           3299.6272     3299.6272     6019    0.00%
Elapsed time = 3.03 sec. (2168.20 ticks, tree = 0.01 MB, solutions = 1)

Root node processing (before b&c):
  Real time             =    3.05 sec. (2170.17 ticks)
Parallel b&c, 32 threads:
  Real time             =    0.00 sec. (0.00 ticks)
  Sync time (average)   =    0.00 sec.
  Wait time (average)   =    0.00 sec.
                          ------------
Total (root+branch&cut) =    3.05 sec. (2170.17 ticks)

Solution pool: 1 solution saved.

MIP - Integer optimal solution:  Objective =  3.2996271817e+03
Solution time =    3.06 sec.  Iterations = 6019  Nodes = 0
Deterministic time = 2170.32 ticks  (708.79 ticks/sec)

CPLEX> Incumbent solution written to file 'C:\Users\llavin\Desktop\test826\logs\tmpa56sul18.cplex.sol'.
CPLEX> Exporting results... 
